0 25 29
1 26 32
2 33 33
3 30 31
4 26 30
5 16 28
6 31 31
7 30 30
8 18 28
9 27 27
10 26 27
11 5 26
12 12 23
13 19 21
14 22 22
15 18 21
16 11 17
17 11 14
18 14 15
19 14 14
20 7 13
21 7 7
22 5 7
23 5 6
24 2 4
25 3 4
26 3 4
27 3 4
28 2 3
29 2 3
30 4 4
31 4 4
32 3 3
33 1 1

